NAME: inst9.atsp
TYPE: ATSP
DIMENSION: 10
EDGE_WEIGHT_TYPE: EXPLICIT
EDGE_WEIGHT_FORMAT: FULL_MATRIX
EDGE_WEIGHT_SECTION:
0 34 16 95 91 73 26 54 82 32
67 0 53 69 19 38 37 56 3 79
10 64 0 51 35 39 96 39 21 53
10 34 88 0 66 85 79 37 95 11
18 39 13 50 0 43 24 77 65 76
86 52 93 46 20 0 96 59 9 94
85 3 97 5 97 81 0 39 6 31
62 4 24 76 20 77 32 0 85 72
69 46 44 48 77 6 63 64 0 68
67 86 13 54 38 65 19 13 91 0
EOF